\ Model _copy
\ LP format - for model browsing. Use MPS format to capture full model detail.
Maximize
 
Subject To
 a0: x_0 + x_2 + x_5 + x_6 >= 1
 a2: x_1 + x_3 + x_6 + x_9 >= 1
 a3: x_1 + x_4 + x_5 + x_7 >= 1
 b3: x_0 + x_3 <= 1
 b9: 2 x_1 <= 1
 b19: x_2 + x_3 <= 1
 b36: 2 x_4 <= 1
 b45: 2 x_5 <= 1
 b55: x_6 + x_7 <= 1
 b65: x_7 + x_9 <= 1
Bounds
Binaries
 x_0 x_1 x_2 x_3 x_4 x_5 x_6 x_7 x_9
End
